p cnf 32 64
c parity= array([0, 1, 1, 1, 0, 1, 0, 0, 0, 1, 1, 0, 1, 1, 1, 1, 1, 0, 0, 0, 1, 1,
       0, 1, 1, 0, 1, 1, 1, 1, 1, 1])
c e=1/4
x 3 5 7 8 9 11 17 18 20 22 23 24 25 26 30 31 32 0
x 1 4 5 8 9 12 13 17 18 20 21 22 24 27 28 30 31 0
x 1 3 4 7 9 11 12 14 15 17 18 19 21 22 23 25 26 30 31 0
x -2 3 4 5 6 12 14 15 19 20 21 23 24 26 27 30 0
x -5 6 7 10 12 14 19 20 21 22 24 25 29 30 32 0
x 1 2 4 6 7 9 10 11 12 13 18 19 21 28 32 0
x -1 2 4 9 10 11 12 13 16 18 21 23 27 31 32 0
x -4 7 10 11 12 16 17 27 28 30 0
x 2 4 5 7 12 13 15 17 19 24 26 28 31 32 0
x -1 2 3 4 6 8 10 11 12 14 15 16 17 18 20 22 23 24 25 28 29 31 0
x 2 4 5 10 14 19 20 21 27 29 30 0
x 1 2 4 5 7 8 10 11 13 14 17 19 23 25 27 0
x 1 3 7 8 10 11 14 15 17 18 19 20 22 23 25 0
x -1 3 7 8 11 13 14 15 18 19 20 21 22 23 24 26 27 28 29 30 31 32 0
x 3 4 6 10 12 14 17 18 21 22 23 24 27 29 30 31 0
x -3 4 5 7 8 9 11 14 15 17 18 19 20 21 25 27 30 31 0
x -3 5 6 17 19 21 22 24 26 31 0
x -1 4 8 9 10 11 15 16 17 19 20 21 24 32 0
x -2 3 7 8 11 12 14 16 17 19 22 25 31 32 0
x -2 4 5 12 16 17 18 21 22 24 25 27 28 29 32 0
x -1 3 4 8 13 16 17 18 24 26 28 30 31 0
x -2 3 4 6 13 15 16 18 19 22 24 26 27 29 32 0
x -2 5 7 8 12 14 15 17 21 23 28 29 30 31 32 0
x 1 2 5 8 10 12 14 15 16 18 19 22 26 27 28 30 31 32 0
x -1 4 6 9 10 11 12 13 14 15 17 21 22 24 27 28 30 31 32 0
x 3 4 5 8 12 15 16 17 18 20 22 24 26 27 29 30 31 0
x 1 2 5 6 10 16 20 21 23 26 28 29 31 0
x -1 2 3 8 9 12 13 17 20 22 23 24 25 30 31 32 0
x -2 8 10 11 13 14 15 16 17 18 20 24 25 27 28 0
x 1 3 6 7 16 19 21 25 26 28 29 30 31 32 0
x -3 4 6 7 9 10 13 18 20 21 23 24 25 26 27 28 29 0
x 1 6 7 8 13 15 16 19 20 21 22 23 24 27 28 30 0
x -1 7 10 12 15 16 17 18 20 21 22 23 24 26 29 31 32 0
x -3 4 6 9 10 13 15 16 18 19 20 22 23 28 30 0
x -2 4 5 8 9 10 18 19 20 22 23 24 25 26 28 0
x -1 3 5 6 8 9 11 12 13 14 15 17 18 24 29 31 0
x -1 3 4 5 6 8 9 11 13 14 15 16 17 24 28 30 31 32 0
x 2 3 5 6 15 16 17 18 19 20 24 26 27 0
x -1 3 6 7 9 11 12 13 14 15 16 18 21 22 24 25 26 27 28 30 0
x -3 5 8 11 17 19 20 22 25 26 28 0
x -1 3 5 8 10 12 13 15 16 18 19 20 21 22 24 25 26 28 30 32 0
x 1 2 3 4 13 14 15 16 18 21 22 27 28 30 31 0
x -2 3 4 5 6 8 9 10 11 14 16 18 19 22 23 24 30 31 0
x 1 2 3 4 5 12 15 18 21 22 24 28 30 31 32 0
x -5 6 7 9 11 12 17 21 23 25 26 27 28 30 31 32 0
x -1 8 9 12 13 16 17 18 19 21 22 24 27 28 0
x -2 3 5 7 8 11 12 13 15 17 19 21 23 26 27 29 30 31 32 0
x 2 3 5 7 8 9 11 12 13 14 15 16 18 19 21 23 24 25 27 28 29 32 0
x -4 5 6 7 8 9 11 14 18 25 29 30 32 0
x -1 3 5 6 7 11 12 13 15 17 18 19 20 22 23 24 25 26 28 30 32 0
x 3 4 7 11 12 13 16 18 20 23 25 28 0
x 2 3 5 8 11 12 15 16 20 22 24 25 26 29 30 31 0
x -1 2 3 5 6 7 9 11 12 13 14 16 17 19 22 27 28 29 30 31 32 0
x 1 2 4 5 9 11 12 13 15 16 21 23 24 28 29 32 0
x -2 4 7 8 11 13 16 17 18 20 21 22 25 26 27 30 31 0
x 1 6 7 8 11 12 15 16 17 18 21 22 23 24 25 27 28 31 32 0
x 1 2 3 5 6 7 9 10 11 12 18 19 21 22 26 27 28 29 0
x -1 2 3 5 9 11 12 14 18 20 22 27 28 29 0
x -1 5 6 8 12 13 14 15 16 21 23 26 29 32 0
x -2 4 5 6 9 12 14 16 18 19 24 26 27 28 29 30 31 32 0
x 1 2 3 9 11 12 13 14 15 16 19 20 21 22 23 24 25 28 30 31 32 0
x 1 2 3 4 6 9 10 11 13 18 19 21 22 23 27 28 30 31 0
x 2 3 5 6 10 11 12 17 19 20 21 22 23 24 0
x -2 4 6 7 8 9 10 11 16 19 20 22 23 26 27 28 32 0
